Academic license - for non-commercial use only
Academic license - for non-commercial use only
Academic license - for non-commercial use only
Academic license - for non-commercial use only
Read LP format model from file vi_44_39_cuts.lp
Reading time = 0.00 seconds
OBJROW: 347 rows, 257 columns, 1187 nonzeros
Optimize a model with 347 rows, 257 columns and 1187 nonzeros
Coefficient statistics:
  Matrix range     [1e-01, 9e+01]
  Objective range  [1e+00, 1e+00]
  Bounds range     [1e+00, 9e+02]
  RHS range        [1e+00, 5e+02]
Presolve removed 172 rows and 168 columns
Presolve time: 0.00s
Presolved: 175 rows, 89 columns, 553 nonzeros

Iteration    Objective       Primal Inf.    Dual Inf.      Time
       0   -8.2000000e+01   8.059543e+02   0.000000e+00      0s
      70    2.9888889e+01   0.000000e+00   0.000000e+00      0s

Solved in 70 iterations and 0.00 seconds
Optimal objective  2.988888889e+01
Academic license - for non-commercial use only
Academic license - for non-commercial use only
Read LP format model from file vi_44_39_cuts.lp
Reading time = 0.00 seconds
OBJROW: 347 rows, 257 columns, 1187 nonzeros
Optimize a model with 347 rows, 257 columns and 1187 nonzeros
Coefficient statistics:
  Matrix range     [1e-01, 9e+01]
  Objective range  [1e+00, 1e+00]
  Bounds range     [1e+00, 9e+02]
  RHS range        [1e+00, 5e+02]
Presolve removed 172 rows and 168 columns
Presolve time: 0.00s
Presolved: 175 rows, 89 columns, 553 nonzeros

Iteration    Objective       Primal Inf.    Dual Inf.      Time
       0   -8.2000000e+01   8.059543e+02   0.000000e+00      0s
      70    2.9888889e+01   0.000000e+00   0.000000e+00      0s

Solved in 70 iterations and 0.00 seconds
Optimal objective  2.988888889e+01
Academic license - for non-commercial use only
Using Python-MIP package version 1.5.3
gurobi version 8.1 found
 C: 29.8888888889 x(0,0): 0.2111111111 x(0,3): 10.2111111111 x(0,2): 15.5055555556 x(0,1): 21.5055555556 x(1,0): 8.8888888889 x(1,3): 9.8888888889 x(1,1): 16.8888888889 x(1,2): 21.8888888889 x(2,2): 11.9888888889 x(2,3): 2.9888888889 x(2,1): 14.9888888889 x(2,0): 21.9888888889 x(3,1): 0.8888888889 x(3,3): 7.8888888889 x(3,0): 10.8888888889 x(3,2): 19.8888888889 y(0,1,0): 0.9834722222 y(1,0,0): 0.0165277778 y(0,1,1): 0.8649224806 y(1,0,1): 0.1350775194 y(0,1,2): 1.0* y(1,0,2): 0.0 y(0,1,3): 0.9834722222 y(1,0,3): 0.0165277778 y(0,2,0): 1.0* y(2,0,0): 0.0 y(0,2,1): 0.8351626016 y(2,0,1): 0.1648373984 y(0,2,2): 0.877991453 y(2,0,2): 0.122008547 y(0,2,3): 0.8984910837 y(2,0,3): 0.1015089163 y(0,3,0): 1.0* y(3,0,0): 0.0 y(0,3,1): 0.0 y(3,0,1): 1.0* y(0,3,2): 0.9762254902 y(3,0,2): 0.0237745098 y(0,3,3): 0.9551051051 y(3,0,3): 0.0448948949 y(1,2,0): 1.0* y(2,1,0): 0.0 y(1,2,1): 0.9067567568 y(2,1,1): 0.0932432432 y(1,2,2): 0.7894117647 y(2,1,2): 0.2105882353 y(1,2,3): 0.8283950617 y(2,1,3): 0.1716049383 y(1,3,0): 0.130952381 y(3,1,0): 0.869047619 y(1,3,1): 0.7558139535 y(3,1,1): 0.2441860465 y(1,3,2): 0.8666666667 y(3,1,2): 0.1333333333 y(1,3,3): 0.8783783784 y(3,1,3): 0.1216216216 y(2,3,0): 0.855952381 y(3,2,0): 0.144047619 y(2,3,1): 0.7731182796 y(3,2,1): 0.2268817204 y(2,3,2): 1.0* y(3,2,2): 0.0 y(2,3,3): 0.9460526316 y(3,2,3): 0.0539473684 v(0,1,0)p: 0.0 v(0,1,0)n: 9.6777777778 v(1,0,0)p: 0.0 v(1,0,0)n: 1.3222222222 u(0,1,0)p: 940.0* u(0,1,0)n: 938.8595833333 u(1,0,0)p: 940.0* u(1,0,0)n: 940.0* v(0,1,1)p: 68.6166666667 v(0,1,1)n: 69.0* v(1,0,1)p: 0.0 v(1,0,1)n: 11.6166666667 u(0,1,1)p: 0.0 u(0,1,1)n: 0.0 u(1,0,1)p: 940.0* u(1,0,1)n: 940.0* v(0,1,2)p: 0.0 v(0,1,2)n: 14.3833333333 v(1,0,2)p: 0.3833333333 v(1,0,2)n: 0.0 u(0,1,2)p: 0.0 u(0,1,2)n: 0.0 u(1,0,2)p: 940.0* u(1,0,2)n: 939.6166666667 v(0,1,3)p: 0.0 v(0,1,3)n: 6.6777777778 v(1,0,3)p: 0.0 v(1,0,3)n: 1.3222222222 u(0,1,3)p: 0.0 u(0,1,3)n: 0.0 u(1,0,3)p: 0.0 u(1,0,3)n: 0.0 v(0,2,0)p: 0.0 v(0,2,0)n: 22.7777777778 v(2,0,0)p: 11.7777777778 v(2,0,0)n: 0.0 u(0,2,0)p: 940.0* u(0,2,0)n: 940.0* u(2,0,0)p: 940.0* u(2,0,0)n: 928.2222222222 v(0,2,1)p: 0.0 v(0,2,1)n: 0.4833333333 v(2,0,1)p: 0.0 v(2,0,1)n: 13.5166666667 u(0,2,1)p: 0.0 u(0,2,1)n: 0.0 u(2,0,1)p: 0.0 u(2,0,1)n: 0.0 v(0,2,2)p: 69.0* v(0,2,2)n: 68.4833333333 v(2,0,2)p: 0.0 v(2,0,2)n: 9.5166666667 u(0,2,2)p: 0.0 u(0,2,2)n: 0.0 u(2,0,2)p: 0.0 u(2,0,2)n: 0.0 v(0,2,3)p: 0.0 v(0,2,3)n: 1.7777777778 v(2,0,3)p: 0.0 v(2,0,3)n: 8.2222222222 u(0,2,3)p: 940.0* u(0,2,3)n: 932.792866941 u(2,0,3)p: 940.0* u(2,0,3)n: 940.0* v(0,3,0)p: 0.0 v(0,3,0)n: 19.6777777778 v(3,0,0)p: 0.6777777778 v(3,0,0)n: 0.0 u(0,3,0)p: 0.0 u(0,3,0)n: 0.0 u(3,0,0)p: 0.6777777778 u(3,0,0)n: 0.0 v(0,3,1)p: 13.6166666667 v(0,3,1)n: 0.0 v(3,0,1)p: 0.0 v(3,0,1)n: 27.6166666667 u(0,3,1)p: 940.0* u(0,3,1)n: 926.3833333333 u(3,0,1)p: 940.0* u(3,0,1)n: 940.0* v(0,3,2)p: 0.0 v(0,3,2)n: 14.3833333333 v(3,0,2)p: 66.3833333333 v(3,0,2)n: 68.0* u(0,3,2)p: 940.0* u(0,3,2)n: 938.7637254902 u(3,0,2)p: 940.0* u(3,0,2)n: 940.0* v(0,3,3)p: 0.0 v(0,3,3)n: 0.6777777778 v(3,0,3)p: 0.0 v(3,0,3)n: 3.3222222222 u(0,3,3)p: 940.0* u(0,3,3)n: 936.8573573574 u(3,0,3)p: 0.0 u(3,0,3)n: 0.0 v(1,2,0)p: 0.0 v(1,2,0)n: 14.1 v(2,1,0)p: 12.1 v(2,1,0)n: 0.0 u(1,2,0)p: 940.0* u(1,2,0)n: 940.0* u(2,1,0)p: 12.1 u(2,1,0)n: 0.0 v(1,2,1)p: 0.0 v(1,2,1)n: 5.1 v(2,1,1)p: 0.0 v(2,1,1)n: 6.9 u(1,2,1)p: 0.0 u(1,2,1)n: 0.0 u(2,1,1)p: 940.0* u(2,1,1)n: 940.0* v(1,2,2)p: 74.0* v(1,2,2)n: 67.1 v(2,1,2)p: 0.0 v(2,1,2)n: 17.9 u(1,2,2)p: 940.0* u(1,2,2)n: 924.4164705882 u(2,1,2)p: 0.0 u(2,1,2)n: 0.0 v(1,2,3)p: 0.0 v(1,2,3)n: 2.1 v(2,1,3)p: 0.0 v(2,1,3)n: 13.9 u(1,2,3)p: 940.0* u(1,2,3)n: 928.8456790123 u(2,1,3)p: 940.0* u(2,1,3)n: 940.0* v(1,3,0)p: 0.0 v(1,3,0)n: 11.0 v(3,1,0)p: 1.0 v(3,1,0)n: 0.0 u(1,3,0)p: 940.0* u(1,3,0)n: 940.0* u(3,1,0)p: 0.0 u(3,1,0)n: 0.0 v(1,3,1)p: 9.0 v(1,3,1)n: 0.0 v(3,1,1)p: 0.0 v(3,1,1)n: 21.0 u(1,3,1)p: 0.0 u(1,3,1)n: 0.0 u(3,1,1)p: 0.0 u(3,1,1)n: 0.0 v(1,3,2)p: 0.0 v(1,3,2)n: 8.0 v(3,1,2)p: 0.0 v(3,1,2)n: 10.0 u(1,3,2)p: 0.0 u(1,3,2)n: 0.0 u(3,1,2)p: 0.0 u(3,1,2)n: 0.0 v(1,3,3)p: 0.0 v(1,3,3)n: 1.0 v(3,1,3)p: 0.0 v(3,1,3)n: 9.0 u(1,3,3)p: 0.0 u(1,3,3)n: 0.0 u(3,1,3)p: 940.0* u(3,1,3)n: 940.0* v(2,3,0)p: 2.1 v(2,3,0)n: 0.0 v(3,2,0)p: 0.0 v(3,2,0)n: 12.1 u(2,3,0)p: 940.0* u(2,3,0)n: 929.3404761905 u(3,2,0)p: 940.0* u(3,2,0)n: 940.0* v(2,3,1)p: 7.1 v(2,3,1)n: 0.0 v(3,2,1)p: 0.0 v(3,2,1)n: 21.1 u(2,3,1)p: 0.0 u(2,3,1)n: 0.0 u(3,2,1)p: 940.0* u(3,2,1)n: 940.0* v(2,3,2)p: 0.0 v(2,3,2)n: 17.9 v(3,2,2)p: 4.9 v(3,2,2)n: 0.0 u(2,3,2)p: 940.0* u(2,3,2)n: 940.0* u(3,2,2)p: 940.0* u(3,2,2)n: 935.1 v(2,3,3)p: 0.0 v(2,3,3)n: 7.9 v(3,2,3)p: 0.0 v(3,2,3)n: 4.1 u(2,3,3)p: 940.0* u(2,3,3)n: 936.5473684211 u(3,2,3)p: 940.0* u(3,2,3)n: 940.0*
obj:  0.9899437912959002
10 OptimizationStatus.OPTIMAL
vi_44_39_cuts.lp - obj: 29.88888888888889 ; atual = 29.88888888888889 ; CG encontrado: 0
